5	6	7	8	9	10	11	12	13	14	15	16	17	18	19	20	21	22	23	24
	25	3	0	1	0	4	0	4	0	4	0	4	2	0	3	4	0	4	4
	37	10	6	7	8	12	8	12	8	12	8	12	6	4	8	12	6	12	24
	47	16	12	13	16	20	16	20	16	20	16	17	11	9	16	20	11	20	48
	55	21	18	20	24	28	24	28	24	28	22	22	15	15	23	28	16	28
		26	24	28	32	36	32	36	32	36	27	26	20	21	27	36	24	36
		30	30	36	40	44	40	44	40	44	32	31	24	27	32	42	32	44
		35	34	44	48	52	48	52	48	52	40	35	29	35	40	47	40
		40	39	50	56		56		56		48	40	33	43	48	52	48
		45	44	54							56	44	38	51	56		56
		50	49									49	42	59
		56	55									53	47
												58	51
													56